17,5	0,0	6,0	16,1	0,0	0,0	0,0	0,0	0,0	17,7
7,1	13,0	0,0	18,0	19,5	0,0	0,0	16,3	0,0	0,0
0,0	0,0	14,8	0,0	12,1	12,9	0,0	0,0	15,1	0,0
11,7	0,0	12,2	0,0	0,0	0,0	15,5	0,0	0,0	0,0
0,0	13,7	0,0	13,6	8,0	0,0	0,0	8,6	0,0	0,0
0,0	12,6	12,4	0,0	6,5	9,6	0,0	0,0	8,5	0,0
0,0	8,7	0,0	5,3	0,0	0,0	19,8	0,0	0,0	9,3
15,5	0,0	19,1	0,0	0,0	0,0	0,0	0,0	0,0	17,9
0,0	10,0	0,0	7,9	19,6	0,0	0,0	14,5	0,0	0,0
0,0	0,0	15,8	0,0	0,0	19,2	6,5	0,0	0,0	14,2
									
3,3	3,4	3,9	5,0	2,7	3,9	3,8	2,7	3,3	4,1
